units           metal
read_data       input.data
variable        n index 3
variable        r index 100
replicate       $n $n 1
pair_style      tersoff
pair_coeff      * * SiC.tersoff C
neighbor        0.5 bin
neigh_modify    delay 2
fix             0 all nve
timestep        0.0001
run             $r
